c partition 2 of 2
p cnf 20 30
6 -5 -10 0
12 -14 -10 0
-18 -12 -17 0
-14 2 6 0
17 8 -15 0
-19 10 -4 0
-6 20 -1 0
8 10 19 0
6 -16 12 0
-12 -7 11 0
-6 -2 -5 0
-10 9 -8 0
-15 19 14 0
14 10 -9 0
14 -2 15 0
-16 -14 -20 0
-16 -4 18 0
15 17 -2 0
-2 -19 -9 0
15 11 -4 0
-17 -2 -8 0
11 4 -14 0
-14 16 -9 0
16 7 4 0
-5 -12 15 0
11 13 10 0
-16 -11 -2 0
-19 -18 -1 0
8 -3 13 0
-4 15 -7 0
